networks/zoo_38_273/standard/zoo_38_273.sol
<?xml version = "1.0" encoding="UTF-8" standalone="yes"?>
<CPLEXSolution version="1.2">
 <header
   problemName="networks/zoo_38_273/zoo_38_273.lp"
   solutionName="incumbent"
   solutionIndex="-1"
   objectiveValue="19"
   solutionTypeValue="3"
   solutionTypeString="primal"
   solutionStatusValue="101"
   solutionStatusString="integer optimal solution"
   solutionMethodString="mip"
   primalFeasible="1"
   dualFeasible="1"
   MIPNodes="0"
   MIPIterations="175"
   writeLevel="3"/>
 <quality
   epInt="1.0000000000000001e-05"
   epRHS="9.9999999999999995e-07"
   maxIntInfeas="2.2204460492503131e-16"
   maxPrimalInfeas="8.8817841970012523e-16"
   maxX="4"
   maxSlack="10"/>
 <variables>
  <variable name="Y(5,7)" index="158" value="1"/>
  <variable name="Y(6,8)" index="197" value="1"/>
  <variable name="Y(8,10)" index="275" value="1"/>
  <variable name="Y(10,12)" index="353" value="1"/>
  <variable name="Y(17,3)" index="610" value="1"/>
  <variable name="Y(20,6)" index="727" value="1"/>
  <variable name="Y(32,1)" index="1178" value="1"/>
  <variable name="Y(35,5)" index="1296" value="1"/>
  <variable name="Y(56,2)" index="2091" value="1"/>
  <variable name="Y(109,11)" index="4114" value="1"/>
  <variable name="Y(136,18)" index="5147" value="1"/>
  <variable name="Y(182,17)" index="6894" value="1"/>
  <variable name="Y(197,15)" index="7462" value="1"/>
  <variable name="Y(217,9)" index="8216" value="1"/>
  <variable name="Y(225,19)" index="8530" value="1"/>
  <variable name="Y(252,13)" index="9550" value="1"/>
  <variable name="Y(259,4)" index="9807" value="1"/>
  <variable name="Y(269,14)" index="10197" value="1"/>
  <variable name="Y(271,16)" index="10275" value="1"/>
  <variable name="X(1,2,5)" index="10378" value="1"/>
  <variable name="X(1,4,17)" index="10663" value="0.99999999999999989"/>
  <variable name="X(1,20,32)" index="10951" value="1"/>
  <variable name="X(2,1,17)" index="11209" value="1"/>
  <variable name="X(2,7,5)" index="11470" value="1"/>
  <variable name="X(2,21,56)" index="11794" value="1"/>
  <variable name="X(3,4,259)" index="12270" value="1"/>
  <variable name="X(3,11,8)" index="12292" value="1"/>
  <variable name="X(3,22,17)" index="12574" value="1"/>
  <variable name="X(4,1,32)" index="12862" value="1"/>
  <variable name="X(4,3,17)" index="13120" value="1.0000000000000002"/>
  <variable name="X(4,23,259)" index="13635" value="1"/>
  <variable name="X(5,6,20)" index="13669" value="1"/>
  <variable name="X(5,8,56)" index="13978" value="1"/>
  <variable name="X(5,24,35)" index="14230" value="1"/>
  <variable name="X(6,5,35)" index="14503" value="1"/>
  <variable name="X(6,9,109)" index="14850" value="1"/>
  <variable name="X(6,25,20)" index="15034" value="1"/>
  <variable name="X(7,2,56)" index="15343" value="1"/>
  <variable name="X(7,8,6)" index="15566" value="1"/>
  <variable name="X(7,26,5)" index="15838" value="1"/>
  <variable name="X(8,5,20)" index="16126" value="1"/>
  <variable name="X(8,7,56)" index="16435" value="1"/>
  <variable name="X(8,27,6)" index="16658" value="1"/>
  <variable name="X(9,6,35)" index="16960" value="1"/>
  <variable name="X(9,15,10)" index="17208" value="1"/>
  <variable name="X(9,19,109)" index="17580" value="1"/>
  <variable name="X(9,28,217)" index="17961" value="1"/>
  <variable name="X(10,19,136)" index="18153" value="1"/>
  <variable name="X(10,29,8)" index="18298" value="1"/>
  <variable name="X(11,3,259)" index="18822" value="1"/>
  <variable name="X(11,19,8)" index="18844" value="1"/>
  <variable name="X(11,30,109)" index="19218" value="1"/>
  <variable name="X(12,13,252)" index="19634" value="1"/>
  <variable name="X(12,16,182)" index="19837" value="1"/>
  <variable name="X(12,31,10)" index="19938" value="1"/>
  <variable name="X(13,12,10)" index="20211" value="1"/>
  <variable name="X(13,14,269)" index="20743" value="1"/>
  <variable name="X(13,15,197)" index="20944" value="1"/>
  <variable name="X(13,32,252)" index="21272" value="1"/>
  <variable name="X(14,13,197)" index="21490" value="1"/>
  <variable name="X(14,33,269)" index="21835" value="1"/>
  <variable name="X(15,9,217)" index="22056" value="1"/>
  <variable name="X(15,13,10)" index="22122" value="1"/>
  <variable name="X(15,34,197)" index="22582" value="1"/>
  <variable name="X(16,12,252)" index="22910" value="1"/>
  <variable name="X(16,17,182)" index="23113" value="1"/>
  <variable name="X(16,35,271)" index="23475" value="1"/>
  <variable name="X(17,16,271)" index="23748" value="1"/>
  <variable name="X(17,18,225)" index="23975" value="1"/>
  <variable name="X(17,36,182)" index="24205" value="1"/>
  <variable name="X(18,17,271)" index="24567" value="1"/>
  <variable name="X(18,19,225)" index="24794" value="1"/>
  <variable name="X(18,37,136)" index="24978" value="1"/>
  <variable name="X(19,9,10)" index="25125" value="1"/>
  <variable name="X(19,10,8)" index="25396" value="1"/>
  <variable name="X(19,11,109)" index="25770" value="1"/>
  <variable name="X(19,18,136)" index="26070" value="1"/>
  <variable name="X(19,38,225)" index="26432" value="1"/>
  <variable name="C(5,2)" index="26494" value="1"/>
  <variable name="C(5,7)" index="26495" value="2"/>
  <variable name="C(6,8)" index="26499" value="1"/>
  <variable name="C(8,11)" index="26509" value="1"/>
  <variable name="C(8,19)" index="26510" value="2"/>
  <variable name="C(8,10)" index="26511" value="3"/>
  <variable name="C(10,9)" index="26521" value="1"/>
  <variable name="C(10,15)" index="26522" value="2"/>
  <variable name="C(10,13)" index="26523" value="3"/>
  <variable name="C(10,12)" index="26524" value="4"/>
  <variable name="C(17,1)" index="26561" value="1"/>
  <variable name="C(17,4)" index="26562" value="2"/>
  <variable name="C(17,3)" index="26563" value="3"/>
  <variable name="C(20,5)" index="26574" value="1"/>
  <variable name="C(20,6)" index="26575" value="2"/>
  <variable name="C(32,1)" index="26646" value="1"/>
  <variable name="C(35,6)" index="26657" value="1"/>
  <variable name="C(35,5)" index="26658" value="2"/>
  <variable name="C(56,5)" index="26753" value="1"/>
  <variable name="C(56,8)" index="26754" value="2"/>
  <variable name="C(56,7)" index="26755" value="3"/>
  <variable name="C(56,2)" index="26756" value="4"/>
  <variable name="C(109,9)" index="26996" value="1"/>
  <variable name="C(109,19)" index="26997" value="2"/>
  <variable name="C(109,11)" index="26998" value="3"/>
  <variable name="C(136,19)" index="27129" value="0.99999999999999956"/>
  <variable name="C(136,18)" index="27130" value="1.9999999999999996"/>
  <variable name="C(182,16)" index="27356" value="1"/>
  <variable name="C(182,17)" index="27357" value="2"/>
  <variable name="C(197,14)" index="27442" value="2"/>
  <variable name="C(197,13)" index="27443" value="3"/>
  <variable name="C(197,15)" index="27444" value="4"/>
  <variable name="C(217,9)" index="27558" value="1"/>
  <variable name="C(225,18)" index="27585" value="1"/>
  <variable name="C(225,19)" index="27586" value="2"/>
  <variable name="C(252,12)" index="27719" value="1"/>
  <variable name="C(252,13)" index="27720" value="2"/>
  <variable name="C(259,3)" index="27745" value="1"/>
  <variable name="C(259,4)" index="27746" value="2"/>
  <variable name="C(269,14)" index="27784" value="1"/>
  <variable name="C(271,17)" index="27790" value="1"/>
  <variable name="C(271,16)" index="27791" value="2"/>
 </variables>
</CPLEXSolution>
